DIMACS_lns/graph-1000-611.col
p edge 1000 1817
e 1 203
e 1 45
e 1 273
e 1 598
e 1 314
e 2 422
e 2 514
e 2 867
e 3 671
e 3 437
e 3 54
e 3 572
e 4 708
e 4 506
e 4 815
e 5 722
e 5 388
e 5 211
e 6 888
e 6 108
e 6 724
e 6 115
e 6 120
e 7 917
e 7 291
e 7 226
e 7 829
e 7 412
e 7 276
e 8 840
e 8 752
e 8 208
e 8 594
e 12 714
e 12 823
e 12 316
e 14 126
e 14 21
e 14 410
e 14 660
e 15 845
e 15 664
e 15 761
e 18 747
e 18 512
e 18 832
e 18 940
e 19 45
e 19 604
e 19 778
e 19 506
e 20 671
e 20 715
e 20 151
e 20 269
e 20 638
e 21 250
e 21 279
e 21 787
e 21 108
e 21 171
e 22 900
e 22 350
e 22 849
e 23 410
e 23 868
e 23 274
e 25 991
e 25 967
e 25 699
e 26 738
e 26 516
e 26 705
e 26 92
e 26 899
e 27 724
e 27 515
e 27 673
e 27 948
e 29 30
e 29 572
e 29 856
e 29 772
e 30 55
e 30 907
e 30 844
e 30 255
e 30 139
e 30 644
e 30 688
e 30 164
e 31 560
e 31 843
e 31 479
e 31 381
e 31 207
e 31 457
e 32 64
e 32 913
e 32 618
e 32 536
e 34 706
e 34 265
e 34 901
e 35 208
e 35 771
e 35 699
e 35 875
e 37 392
e 37 359
e 37 942
e 37 684
e 38 389
e 38 899
e 38 171
e 38 667
e 38 626
e 38 55
e 39 955
e 39 437
e 39 164
e 39 601
e 39 531
e 40 302
e 40 857
e 40 815
e 40 341
e 40 159
e 41 319
e 41 280
e 41 95
e 41 429
e 41 899
e 41 359
e 43 737
e 43 524
e 43 875
e 43 802
e 43 765
e 45 407
e 45 937
e 45 918
e 45 685
e 46 755
e 46 825
e 46 858
e 46 355
e 48 881
e 48 181
e 48 555
e 48 787
e 48 302
e 48 293
e 50 617
e 50 730
e 50 886
e 50 491
e 51 950
e 51 632
e 51 660
e 52 377
e 52 99
e 52 397
e 52 283
e 52 122
e 52 873
e 53 881
e 53 339
e 53 405
e 54 391
e 54 658
e 54 828
e 55 305
e 55 531
e 55 443
e 57 291
e 57 347
e 57 597
e 57 931
e 57 191
e 58 949
e 58 386
e 58 475
e 60 283
e 60 872
e 60 65
e 60 178
e 61 217
e 61 393
e 61 728
e 61 808
e 61 832
e 61 836
e 62 140
e 62 322
e 62 842
e 62 325
e 62 610
e 62 665
e 62 653
e 62 701
e 62 335
e 63 217
e 63 650
e 63 679
e 63 665
e 63 399
e 64 767
e 64 899
e 64 291
e 65 166
e 65 333
e 65 86
e 65 623
e 66 971
e 66 637
e 66 832
e 67 83
e 67 902
e 67 589
e 68 166
e 68 970
e 68 684
e 68 903
e 68 988
e 69 223
e 69 857
e 69 667
e 70 573
e 70 660
e 70 219
e 71 99
e 71 113
e 71 384
e 71 484
e 71 683
e 71 508
e 71 874
e 73 841
e 73 764
e 73 358
e 73 812
e 74 827
e 74 440
e 74 958
e 74 207
e 76 614
e 76 922
e 76 114
e 76 688
e 77 208
e 77 144
e 77 887
e 77 256
e 78 619
e 78 676
e 78 723
e 79 176
e 79 865
e 79 750
e 79 324
e 79 293
e 80 164
e 80 887
e 80 407
e 81 597
e 81 181
e 81 842
e 81 667
e 81 100
e 81 919
e 82 791
e 82 800
e 82 752
e 83 200
e 83 156
e 83 903
e 83 649
e 83 498
e 84 585
e 84 117
e 84 334
e 85 549
e 85 727
e 85 757
e 85 828
e 85 718
e 85 555
e 85 316
e 85 882
e 86 331
e 86 466
e 86 489
e 86 942
e 86 936
e 87 573
e 87 245
e 87 632
e 87 258
e 87 698
e 88 106
e 88 532
e 88 679
e 88 825
e 88 755
e 88 822
e 90 159
e 90 521
e 90 272
e 90 928
e 90 748
e 91 133
e 91 580
e 91 171
e 92 558
e 92 636
e 92 835
e 92 138
e 95 700
e 95 443
e 95 639
e 95 103
e 95 956
e 95 584
e 97 767
e 97 625
e 97 719
e 99 797
e 99 299
e 99 861
e 100 786
e 100 280
e 100 151
e 100 231
e 102 793
e 102 694
e 102 941
e 102 969
e 102 667
e 102 928
e 102 369
e 103 860
e 103 694
e 104 172
e 104 163
e 104 959
e 104 183
e 104 203
e 104 375
e 105 364
e 105 412
e 105 106
e 105 844
e 105 841
e 106 264
e 106 702
e 106 495
e 107 389
e 107 155
e 107 680
e 107 972
e 107 131
e 108 907
e 108 434
e 109 343
e 109 731
e 109 186
e 109 411
e 109 841
e 110 930
e 110 955
e 110 818
e 112 402
e 112 196
e 112 353
e 113 716
e 113 521
e 113 465
e 113 480
e 113 575
e 114 266
e 114 500
e 115 959
e 115 767
e 115 290
e 115 926
e 115 132
e 117 242
e 117 922
e 118 526
e 118 557
e 118 698
e 118 436
e 119 816
e 119 763
e 119 322
e 119 935
e 119 528
e 119 217
e 119 559
e 120 137
e 120 797
e 120 561
e 121 493
e 121 440
e 121 196
e 121 262
e 122 638
e 122 962
e 123 170
e 123 471
e 123 258
e 123 940
e 123 353
e 123 191
e 123 166
e 123 678
e 124 374
e 124 411
e 124 670
e 124 256
e 124 442
e 125 443
e 125 984
e 125 195
e 126 575
e 126 865
e 126 292
e 126 559
e 127 998
e 127 755
e 127 699
e 127 727
e 127 484
e 127 372
e 127 307
e 127 172
e 128 557
e 128 574
e 128 884
e 129 647
e 129 327
e 129 723
e 129 916
e 129 707
e 129 749
e 129 383
e 129 373
e 129 752
e 131 691
e 131 303
e 132 750
e 132 561
e 133 390
e 133 465
e 133 935
e 133 856
e 135 421
e 135 893
e 135 269
e 135 716
e 135 971
e 135 207
e 136 204
e 136 625
e 136 651
e 136 484
e 137 580
e 137 746
e 137 622
e 138 600
e 138 563
e 138 773
e 138 185
e 138 611
e 139 530
e 139 377
e 139 523
e 139 316
e 139 252
e 140 710
e 140 285
e 142 656
e 142 260
e 142 184
e 142 758
e 143 957
e 143 701
e 143 383
e 143 402
e 143 736
e 144 285
e 144 893
e 144 501
e 144 980
e 146 457
e 146 211
e 146 967
e 146 680
e 146 573
e 147 561
e 147 826
e 147 606
e 147 747
e 147 276
e 148 714
e 148 532
e 148 398
e 148 596
e 148 736
e 150 666
e 150 615
e 150 656
e 150 556
e 151 529
e 151 752
e 151 213
e 151 447
e 151 207
e 151 560
e 155 685
e 155 847
e 155 418
e 156 438
e 156 617
e 157 163
e 157 723
e 157 803
e 157 807
e 158 314
e 158 280
e 158 890
e 159 345
e 159 980
e 159 604
e 159 443
e 160 752
e 160 641
e 160 500
e 160 996
e 160 887
e 161 283
e 161 934
e 161 821
e 163 302
e 163 882
e 163 679
e 163 969
e 163 202
e 163 317
e 164 593
e 164 726
e 164 279
e 165 779
e 165 241
e 165 537
e 165 504
e 166 710
e 166 245
e 166 249
e 167 758
e 167 651
e 167 657
e 168 349
e 168 793
e 168 642
e 168 648
e 169 808
e 169 568
e 169 839
e 170 942
e 170 239
e 170 752
e 170 780
e 170 245
e 170 495
e 170 785
e 171 268
e 171 457
e 171 280
e 171 176
e 172 817
e 172 956
e 172 742
e 173 843
e 173 664
e 173 206
e 173 959
e 174 230
e 174 251
e 174 637
e 174 910
e 174 350
e 175 183
e 175 820
e 175 515
e 175 671
e 176 968
e 178 702
e 178 387
e 178 582
e 178 335
e 179 866
e 179 374
e 179 325
e 179 393
e 181 758
e 181 992
e 181 504
e 181 683
e 182 377
e 182 969
e 182 325
e 182 585
e 182 917
e 183 249
e 183 790
e 183 709
e 183 564
e 183 935
e 183 718
e 184 294
e 184 835
e 184 780
e 184 321
e 184 387
e 185 699
e 185 472
e 185 916
e 185 305
e 185 862
e 185 334
e 186 957
e 186 753
e 186 293
e 188 804
e 188 592
e 188 393
e 188 775
e 190 558
e 190 820
e 190 790
e 191 729
e 191 377
e 192 350
e 192 589
e 192 414
e 194 787
e 194 856
e 194 489
e 194 658
e 195 956
e 195 335
e 195 411
e 195 412
e 195 667
e 196 493
e 196 503
e 196 786
e 196 924
e 196 392
e 197 580
e 197 451
e 197 223
e 198 765
e 198 530
e 198 684
e 198 973
e 198 920
e 199 200
e 199 746
e 199 344
e 200 962
e 200 468
e 200 557
e 202 595
e 202 576
e 202 514
e 202 636
e 202 707
e 203 712
e 203 461
e 204 598
e 204 904
e 205 412
e 205 969
e 205 926
e 206 387
e 206 253
e 206 601
e 206 785
e 206 445
e 207 755
e 207 517
e 207 444
e 208 641
e 208 339
e 208 223
e 211 676
e 211 594
e 211 710
e 211 379
e 211 854
e 211 811
e 213 523
e 213 674
e 213 464
e 213 920
e 213 248
e 214 377
e 214 572
e 214 320
e 214 896
e 214 748
e 214 256
e 216 553
e 216 423
e 216 886
e 217 688
e 217 331
e 217 489
e 217 767
e 217 342
e 218 715
e 218 750
e 218 667
e 218 368
e 218 290
e 219 614
e 219 246
e 219 572
e 219 262
e 221 916
e 221 387
e 221 896
e 223 601
e 223 946
e 223 621
e 225 972
e 225 527
e 225 492
e 225 338
e 225 753
e 225 872
e 225 763
e 226 250
e 226 265
e 226 472
e 228 423
e 228 691
e 228 332
e 228 927
e 230 565
e 230 846
e 230 275
e 230 320
e 230 902
e 230 527
e 231 607
e 231 325
e 236 486
e 236 277
e 236 913
e 237 803
e 237 880
e 237 842
e 238 917
e 238 911
e 238 365
e 239 845
e 239 929
e 240 514
e 240 870
e 240 800
e 241 574
e 241 739
e 241 772
e 241 935
e 241 256
e 242 618
e 242 424
e 242 956
e 242 576
e 242 285
e 243 262
e 243 365
e 243 932
e 244 367
e 244 417
e 244 952
e 245 644
e 246 946
e 246 394
e 248 859
e 248 910
e 248 265
e 248 538
e 248 257
e 249 697
e 249 772
e 250 317
e 250 276
e 251 491
e 251 752
e 251 939
e 252 474
e 252 465
e 252 878
e 252 640
e 253 833
e 253 917
e 253 666
e 253 740
e 253 828
e 255 730
e 255 975
e 256 464
e 257 593
e 257 876
e 257 812
e 257 800
e 258 358
e 258 286
e 258 322
e 258 848
e 260 729
e 260 299
e 260 628
e 261 407
e 261 435
e 261 531
e 261 391
e 261 943
e 262 611
e 262 833
e 262 811
e 264 753
e 264 847
e 264 564
e 265 662
e 265 542
e 266 844
e 266 294
e 267 823
e 267 903
e 267 421
e 267 971
e 268 935
e 268 497
e 268 333
e 268 997
e 268 826
e 269 559
e 269 475
e 269 380
e 272 483
e 272 341
e 272 456
e 272 875
e 272 904
e 273 442
e 273 750
e 273 809
e 273 595
e 273 300
e 273 383
e 274 868
e 274 561
e 274 845
e 274 884
e 275 286
e 275 931
e 276 375
e 277 551
e 277 572
e 278 521
e 278 962
e 278 861
e 278 829
e 278 571
e 279 1000
e 279 325
e 279 387
e 280 638
e 280 934
e 280 455
e 280 783
e 280 452
e 283 829
e 283 925
e 283 948
e 283 861
e 285 385
e 286 785
e 286 755
e 289 436
e 289 919
e 289 386
e 290 920
e 290 324
e 290 313
e 290 353
e 290 521
e 291 568
e 292 943
e 292 397
e 292 524
e 292 592
e 292 506
e 292 719
e 293 865
e 293 937
e 293 567
e 294 585
e 294 767
e 294 746
e 295 355
e 295 820
e 295 853
e 297 332
e 297 671
e 297 500
e 298 689
e 298 629
e 298 714
e 299 353
e 299 430
e 299 683
e 299 673
e 299 876
e 300 934
e 300 526
e 300 890
e 300 1000
e 300 510
e 300 374
e 302 633
e 302 816
e 303 320
e 303 689
e 303 348
e 305 331
e 307 719
e 307 842
e 307 435
e 307 816
e 307 946
e 308 967
e 308 342
e 308 524
e 308 763
e 308 866
e 309 433
e 309 647
e 309 660
e 309 890
e 309 375
e 309 403
e 309 471
e 309 631
e 309 694
e 313 862
e 313 836
e 313 324
e 313 526
e 313 390
e 314 592
e 316 788
e 316 768
e 316 468
e 316 385
e 317 523
e 317 338
e 317 954
e 317 498
e 319 823
e 319 363
e 320 924
e 320 565
e 320 772
e 320 886
e 320 552
e 321 470
e 321 761
e 321 480
e 322 662
e 322 721
e 323 659
e 323 474
e 323 527
e 323 582
e 324 549
e 324 610
e 325 823
e 325 828
e 325 582
e 326 542
e 326 552
e 326 964
e 327 365
e 327 648
e 327 849
e 327 613
e 329 402
e 329 664
e 329 594
e 329 532
e 331 874
e 331 617
e 332 797
e 333 553
e 334 431
e 334 822
e 334 843
e 334 698
e 334 421
e 335 897
e 335 352
e 338 735
e 338 422
e 339 671
e 339 556
e 339 935
e 341 802
e 341 502
e 341 626
e 341 732
e 341 882
e 342 628
e 342 421
e 342 558
e 343 800
e 343 918
e 343 858
e 344 394
e 344 518
e 344 670
e 344 592
e 345 542
e 345 559
e 345 784
e 345 436
e 347 622
e 347 489
e 347 759
e 347 904
e 347 765
e 348 571
e 348 765
e 348 750
e 349 418
e 349 422
e 350 898
e 352 767
e 352 764
e 352 486
e 352 455
e 352 801
e 352 919
e 353 943
e 353 787
e 353 911
e 353 391
e 353 859
e 354 950
e 354 962
e 354 479
e 355 367
e 355 890
e 358 868
e 358 438
e 358 487
e 358 882
e 358 857
e 358 931
e 359 761
e 359 956
e 361 670
e 361 805
e 361 691
e 363 905
e 363 707
e 363 900
e 364 952
e 364 600
e 364 671
e 365 950
e 365 697
e 367 925
e 368 611
e 368 930
e 368 749
e 368 878
e 369 561
e 369 639
e 372 706
e 372 542
e 373 759
e 373 928
e 373 825
e 374 940
e 375 403
e 375 516
e 377 380
e 377 694
e 377 416
e 379 424
e 379 395
e 379 394
e 380 427
e 380 649
e 381 967
e 381 962
e 381 745
e 381 470
e 383 517
e 383 870
e 383 613
e 383 937
e 383 847
e 383 862
e 384 561
e 384 565
e 385 424
e 385 537
e 385 437
e 386 658
e 386 790
e 387 861
e 387 808
e 387 937
e 388 447
e 388 480
e 389 573
e 389 952
e 389 472
e 390 440
e 390 775
e 390 449
e 390 815
e 391 785
e 391 872
e 391 848
e 392 926
e 392 739
e 392 607
e 392 504
e 393 477
e 393 394
e 394 416
e 395 980
e 395 723
e 395 674
e 395 922
e 397 674
e 397 523
e 398 932
e 398 731
e 398 511
e 398 987
e 399 571
e 399 500
e 399 532
e 400 715
e 400 684
e 400 784
e 402 549
e 402 916
e 402 563
e 403 674
e 403 691
e 403 701
e 405 801
e 405 447
e 405 535
e 405 633
e 407 564
e 407 716
e 407 943
e 407 611
e 410 724
e 410 877
e 410 865
e 411 842
e 411 812
e 411 615
e 411 975
e 412 464
e 414 858
e 414 702
e 414 629
e 414 421
e 414 497
e 416 874
e 416 456
e 416 931
e 417 500
e 417 625
e 417 886
e 418 768
e 418 938
e 418 849
e 422 576
e 423 495
e 424 786
e 424 710
e 424 757
e 425 508
e 425 861
e 425 826
e 427 574
e 427 798
e 427 758
e 429 650
e 429 767
e 430 576
e 430 589
e 430 638
e 430 792
e 431 839
e 431 737
e 431 538
e 431 475
e 431 557
e 433 833
e 433 846
e 434 574
e 434 926
e 434 812
e 435 626
e 436 730
e 437 610
e 438 926
e 438 924
e 438 778
e 440 636
e 440 678
e 442 571
e 442 508
e 443 929
e 443 836
e 444 791
e 444 565
e 444 905
e 445 966
e 445 674
e 445 613
e 445 746
e 447 988
e 447 840
e 447 678
e 447 809
e 447 523
e 449 780
e 449 608
e 451 484
e 451 641
e 451 773
e 452 763
e 452 822
e 452 729
e 455 484
e 455 564
e 456 667
e 456 913
e 457 510
e 457 538
e 459 575
e 459 732
e 459 962
e 460 702
e 460 886
e 460 676
e 461 899
e 461 848
e 461 927
e 464 475
e 464 988
e 464 600
e 464 799
e 465 658
e 465 507
e 466 595
e 466 468
e 466 820
e 467 917
e 467 636
e 467 527
e 468 762
e 468 929
e 468 482
e 468 848
e 468 637
e 468 798
e 470 503
e 470 517
e 471 516
e 471 632
e 472 635
e 472 563
e 474 512
e 474 654
e 474 961
e 474 841
e 474 898
e 475 710
e 475 884
e 476 943
e 476 968
e 476 902
e 477 966
e 477 506
e 479 929
e 479 758
e 480 807
e 480 992
e 482 559
e 482 907
e 483 653
e 483 622
e 484 619
e 484 944
e 484 555
e 486 875
e 486 628
e 486 502
e 487 854
e 487 821
e 489 917
e 491 753
e 491 678
e 491 887
e 491 686
e 492 560
e 492 750
e 492 766
e 493 916
e 493 530
e 493 876
e 497 752
e 497 828
e 498 551
e 498 596
e 498 826
e 500 997
e 501 670
e 501 778
e 502 616
e 503 735
e 504 648
e 504 853
e 504 876
e 506 890
e 506 526
e 507 806
e 507 689
e 508 911
e 509 819
e 509 639
e 509 904
e 509 565
e 510 995
e 510 973
e 510 593
e 511 536
e 511 524
e 511 578
e 511 577
e 512 563
e 512 866
e 512 750
e 512 621
e 512 827
e 514 755
e 514 752
e 515 637
e 515 735
e 516 625
e 516 807
e 516 860
e 517 913
e 517 738
e 518 806
e 518 957
e 518 637
e 523 740
e 524 603
e 524 893
e 526 597
e 526 810
e 526 844
e 526 849
e 527 571
e 527 825
e 527 930
e 527 962
e 528 600
e 528 925
e 528 984
e 529 844
e 529 598
e 530 862
e 530 907
e 532 654
e 532 568
e 532 724
e 532 714
e 533 878
e 533 941
e 533 598
e 533 845
e 533 665
e 534 955
e 534 968
e 534 796
e 535 761
e 535 818
e 535 546
e 536 930
e 536 858
e 536 595
e 537 900
e 537 623
e 537 904
e 537 721
e 538 948
e 538 826
e 538 705
e 540 784
e 540 787
e 540 721
e 540 607
e 540 730
e 542 712
e 546 659
e 546 966
e 549 618
e 549 904
e 551 902
e 551 619
e 552 970
e 553 557
e 555 617
e 555 900
e 556 614
e 556 922
e 558 880
e 558 840
e 559 859
e 559 576
e 561 772
e 563 650
e 563 724
e 564 647
e 565 665
e 566 765
e 566 697
e 566 615
e 567 639
e 567 938
e 568 792
e 568 577
e 568 574
e 571 621
e 573 732
e 573 730
e 574 887
e 574 577
e 575 658
e 575 644
e 576 668
e 576 844
e 577 875
e 578 758
e 578 606
e 580 854
e 580 714
e 580 860
e 580 737
e 582 824
e 582 819
e 584 685
e 584 804
e 584 972
e 585 828
e 585 952
e 585 812
e 585 727
e 589 905
e 592 635
e 592 816
e 593 604
e 593 793
e 594 913
e 596 887
e 600 659
e 600 866
e 600 857
e 603 718
e 603 918
e 603 746
e 603 706
e 604 639
e 604 868
e 604 910
e 604 850
e 606 735
e 606 872
e 606 946
e 606 738
e 607 653
e 607 679
e 607 661
e 607 856
e 608 844
e 608 836
e 611 719
e 611 765
e 614 702
e 615 737
e 616 961
e 616 724
e 616 833
e 616 791
e 618 722
e 619 700
e 619 668
e 621 876
e 621 995
e 622 701
e 622 708
e 623 840
e 623 816
e 623 919
e 626 712
e 628 652
e 628 819
e 629 931
e 629 750
e 629 864
e 631 698
e 631 671
e 631 973
e 631 918
e 632 732
e 632 916
e 633 637
e 635 924
e 635 809
e 635 954
e 635 813
e 636 805
e 636 749
e 637 658
e 638 783
e 639 962
e 640 969
e 640 742
e 642 654
e 642 820
e 642 827
e 644 793
e 644 650
e 648 813
e 649 716
e 649 829
e 649 783
e 649 882
e 649 833
e 650 770
e 650 887
e 651 922
e 652 770
e 652 767
e 653 866
e 654 944
e 654 817
e 654 818
e 656 822
e 656 999
e 656 886
e 656 802
e 656 762
e 657 952
e 657 977
e 658 721
e 659 911
e 660 819
e 661 689
e 661 937
e 661 873
e 661 766
e 661 977
e 661 938
e 662 925
e 664 946
e 665 957
e 665 850
e 666 860
e 667 964
e 667 881
e 668 857
e 670 808
e 670 759
e 671 840
e 671 972
e 672 791
e 672 822
e 672 846
e 673 768
e 674 826
e 676 932
e 679 793
e 679 810
e 680 773
e 680 996
e 684 859
e 685 893
e 685 807
e 686 821
e 686 835
e 686 996
e 689 877
e 691 861
e 691 764
e 693 775
e 693 826
e 693 890
e 693 807
e 694 853
e 694 899
e 694 861
e 697 958
e 698 807
e 698 864
e 699 781
e 699 901
e 700 815
e 700 964
e 700 817
e 701 973
e 701 943
e 702 870
e 705 873
e 705 944
e 705 888
e 707 710
e 707 890
e 707 775
e 708 977
e 709 987
e 709 868
e 710 822
e 712 942
e 715 803
e 715 987
e 716 819
e 716 775
e 718 802
e 719 792
e 719 836
e 719 752
e 721 882
e 721 961
e 722 835
e 723 949
e 724 856
e 724 910
e 724 801
e 724 871
e 726 876
e 726 980
e 727 937
e 727 946
e 727 812
e 728 757
e 728 867
e 728 904
e 729 858
e 729 861
e 731 975
e 736 822
e 737 828
e 737 936
e 739 907
e 740 839
e 742 843
e 745 833
e 745 748
e 746 811
e 747 820
e 748 995
e 748 961
e 748 842
e 748 998
e 748 935
e 748 854
e 750 793
e 750 998
e 752 781
e 755 821
e 758 858
e 758 784
e 759 849
e 759 1000
e 761 904
e 762 973
e 763 952
e 763 957
e 766 969
e 767 939
e 767 799
e 767 841
e 768 771
e 768 804
e 768 793
e 770 781
e 771 858
e 771 916
e 771 785
e 772 946
e 773 987
e 778 880
e 778 803
e 779 877
e 779 860
e 780 860
e 780 880
e 784 920
e 784 902
e 787 927
e 788 977
e 788 884
e 791 970
e 792 812
e 792 942
e 796 821
e 796 871
e 796 803
e 796 862
e 796 888
e 797 987
e 797 803
e 798 971
e 799 811
e 799 896
e 800 928
e 800 964
e 801 861
e 802 874
e 803 973
e 805 840
e 806 896
e 806 850
e 807 868
e 807 952
e 808 859
e 809 829
e 810 954
e 811 969
e 813 825
e 813 826
e 818 999
e 819 859
e 820 968
e 820 996
e 822 901
e 822 827
e 822 934
e 822 939
e 822 826
e 823 903
e 823 860
e 824 920
e 824 973
e 825 839
e 827 997
e 827 998
e 833 850
e 836 897
e 836 849
e 836 940
e 839 927
e 842 988
e 846 877
e 849 971
e 849 918
e 849 999
e 849 988
e 850 991
e 857 944
e 864 958
e 867 897
e 867 880
e 868 871
e 882 949
e 884 967
e 887 984
e 888 949
e 890 910
e 898 972
e 900 903
e 902 991
e 907 980
e 911 969
e 918 936
e 922 932
e 924 949
e 930 943
e 934 992
e 939 941
e 940 964
e 943 952
e 946 973
e 950 968
e 950 997
e 980 996
