txt_Ins/graph-1000-611.txt
n 1000
e 0 202
e 0 44
e 0 272
e 0 597
e 0 313
e 1 421
e 1 513
e 1 866
e 2 670
e 2 436
e 2 53
e 2 571
e 3 707
e 3 505
e 3 814
e 4 721
e 4 387
e 4 210
e 5 887
e 5 107
e 5 723
e 5 114
e 5 119
e 6 916
e 6 290
e 6 225
e 6 828
e 6 411
e 6 275
e 7 839
e 7 751
e 7 207
e 7 593
e 11 713
e 11 822
e 11 315
e 13 125
e 13 20
e 13 409
e 13 659
e 14 844
e 14 663
e 14 760
e 17 746
e 17 511
e 17 831
e 17 939
e 18 44
e 18 603
e 18 777
e 18 505
e 19 670
e 19 714
e 19 150
e 19 268
e 19 637
e 20 249
e 20 278
e 20 786
e 20 107
e 20 170
e 21 899
e 21 349
e 21 848
e 22 409
e 22 867
e 22 273
e 24 990
e 24 966
e 24 698
e 25 737
e 25 515
e 25 704
e 25 91
e 25 898
e 26 723
e 26 514
e 26 672
e 26 947
e 28 29
e 28 571
e 28 855
e 28 771
e 29 54
e 29 906
e 29 843
e 29 254
e 29 138
e 29 643
e 29 687
e 29 163
e 30 559
e 30 842
e 30 478
e 30 380
e 30 206
e 30 456
e 31 63
e 31 912
e 31 617
e 31 535
e 33 705
e 33 264
e 33 900
e 34 207
e 34 770
e 34 698
e 34 874
e 36 391
e 36 358
e 36 941
e 36 683
e 37 388
e 37 898
e 37 170
e 37 666
e 37 625
e 37 54
e 38 954
e 38 436
e 38 163
e 38 600
e 38 530
e 39 301
e 39 856
e 39 814
e 39 340
e 39 158
e 40 318
e 40 279
e 40 94
e 40 428
e 40 898
e 40 358
e 42 736
e 42 523
e 42 874
e 42 801
e 42 764
e 44 406
e 44 936
e 44 917
e 44 684
e 45 754
e 45 824
e 45 857
e 45 354
e 47 880
e 47 180
e 47 554
e 47 786
e 47 301
e 47 292
e 49 616
e 49 729
e 49 885
e 49 490
e 50 949
e 50 631
e 50 659
e 51 376
e 51 98
e 51 396
e 51 282
e 51 121
e 51 872
e 52 880
e 52 338
e 52 404
e 53 390
e 53 657
e 53 827
e 54 304
e 54 530
e 54 442
e 56 290
e 56 346
e 56 596
e 56 930
e 56 190
e 57 948
e 57 385
e 57 474
e 59 282
e 59 871
e 59 64
e 59 177
e 60 216
e 60 392
e 60 727
e 60 807
e 60 831
e 60 835
e 61 139
e 61 321
e 61 841
e 61 324
e 61 609
e 61 664
e 61 652
e 61 700
e 61 334
e 62 216
e 62 649
e 62 678
e 62 664
e 62 398
e 63 766
e 63 898
e 63 290
e 64 165
e 64 332
e 64 85
e 64 622
e 65 970
e 65 636
e 65 831
e 66 82
e 66 901
e 66 588
e 67 165
e 67 969
e 67 683
e 67 902
e 67 987
e 68 222
e 68 856
e 68 666
e 69 572
e 69 659
e 69 218
e 70 98
e 70 112
e 70 383
e 70 483
e 70 682
e 70 507
e 70 873
e 72 840
e 72 763
e 72 357
e 72 811
e 73 826
e 73 439
e 73 957
e 73 206
e 75 613
e 75 921
e 75 113
e 75 687
e 76 207
e 76 143
e 76 886
e 76 255
e 77 618
e 77 675
e 77 722
e 78 175
e 78 864
e 78 749
e 78 323
e 78 292
e 79 163
e 79 886
e 79 406
e 80 596
e 80 180
e 80 841
e 80 666
e 80 99
e 80 918
e 81 790
e 81 799
e 81 751
e 82 199
e 82 155
e 82 902
e 82 648
e 82 497
e 83 584
e 83 116
e 83 333
e 84 548
e 84 726
e 84 756
e 84 827
e 84 717
e 84 554
e 84 315
e 84 881
e 85 330
e 85 465
e 85 488
e 85 941
e 85 935
e 86 572
e 86 244
e 86 631
e 86 257
e 86 697
e 87 105
e 87 531
e 87 678
e 87 824
e 87 754
e 87 821
e 89 158
e 89 520
e 89 271
e 89 927
e 89 747
e 90 132
e 90 579
e 90 170
e 91 557
e 91 635
e 91 834
e 91 137
e 94 699
e 94 442
e 94 638
e 94 102
e 94 955
e 94 583
e 96 766
e 96 624
e 96 718
e 98 796
e 98 298
e 98 860
e 99 785
e 99 279
e 99 150
e 99 230
e 101 792
e 101 693
e 101 940
e 101 968
e 101 666
e 101 927
e 101 368
e 102 859
e 102 693
e 103 171
e 103 162
e 103 958
e 103 182
e 103 202
e 103 374
e 104 363
e 104 411
e 104 105
e 104 843
e 104 840
e 105 263
e 105 701
e 105 494
e 106 388
e 106 154
e 106 679
e 106 971
e 106 130
e 107 906
e 107 433
e 108 342
e 108 730
e 108 185
e 108 410
e 108 840
e 109 929
e 109 954
e 109 817
e 111 401
e 111 195
e 111 352
e 112 715
e 112 520
e 112 464
e 112 479
e 112 574
e 113 265
e 113 499
e 114 958
e 114 766
e 114 289
e 114 925
e 114 131
e 116 241
e 116 921
e 117 525
e 117 556
e 117 697
e 117 435
e 118 815
e 118 762
e 118 321
e 118 934
e 118 527
e 118 216
e 118 558
e 119 136
e 119 796
e 119 560
e 120 492
e 120 439
e 120 195
e 120 261
e 121 637
e 121 961
e 122 169
e 122 470
e 122 257
e 122 939
e 122 352
e 122 190
e 122 165
e 122 677
e 123 373
e 123 410
e 123 669
e 123 255
e 123 441
e 124 442
e 124 983
e 124 194
e 125 574
e 125 864
e 125 291
e 125 558
e 126 997
e 126 754
e 126 698
e 126 726
e 126 483
e 126 371
e 126 306
e 126 171
e 127 556
e 127 573
e 127 883
e 128 646
e 128 326
e 128 722
e 128 915
e 128 706
e 128 748
e 128 382
e 128 372
e 128 751
e 130 690
e 130 302
e 131 749
e 131 560
e 132 389
e 132 464
e 132 934
e 132 855
e 134 420
e 134 892
e 134 268
e 134 715
e 134 970
e 134 206
e 135 203
e 135 624
e 135 650
e 135 483
e 136 579
e 136 745
e 136 621
e 137 599
e 137 562
e 137 772
e 137 184
e 137 610
e 138 529
e 138 376
e 138 522
e 138 315
e 138 251
e 139 709
e 139 284
e 141 655
e 141 259
e 141 183
e 141 757
e 142 956
e 142 700
e 142 382
e 142 401
e 142 735
e 143 284
e 143 892
e 143 500
e 143 979
e 145 456
e 145 210
e 145 966
e 145 679
e 145 572
e 146 560
e 146 825
e 146 605
e 146 746
e 146 275
e 147 713
e 147 531
e 147 397
e 147 595
e 147 735
e 149 665
e 149 614
e 149 655
e 149 555
e 150 528
e 150 751
e 150 212
e 150 446
e 150 206
e 150 559
e 154 684
e 154 846
e 154 417
e 155 437
e 155 616
e 156 162
e 156 722
e 156 802
e 156 806
e 157 313
e 157 279
e 157 889
e 158 344
e 158 979
e 158 603
e 158 442
e 159 751
e 159 640
e 159 499
e 159 995
e 159 886
e 160 282
e 160 933
e 160 820
e 162 301
e 162 881
e 162 678
e 162 968
e 162 201
e 162 316
e 163 592
e 163 725
e 163 278
e 164 778
e 164 240
e 164 536
e 164 503
e 165 709
e 165 244
e 165 248
e 166 757
e 166 650
e 166 656
e 167 348
e 167 792
e 167 641
e 167 647
e 168 807
e 168 567
e 168 838
e 169 941
e 169 238
e 169 751
e 169 779
e 169 244
e 169 494
e 169 784
e 170 267
e 170 456
e 170 279
e 170 175
e 171 816
e 171 955
e 171 741
e 172 842
e 172 663
e 172 205
e 172 958
e 173 229
e 173 250
e 173 636
e 173 909
e 173 349
e 174 182
e 174 819
e 174 514
e 174 670
e 175 967
e 177 701
e 177 386
e 177 581
e 177 334
e 178 865
e 178 373
e 178 324
e 178 392
e 180 757
e 180 991
e 180 503
e 180 682
e 181 376
e 181 968
e 181 324
e 181 584
e 181 916
e 182 248
e 182 789
e 182 708
e 182 563
e 182 934
e 182 717
e 183 293
e 183 834
e 183 779
e 183 320
e 183 386
e 184 698
e 184 471
e 184 915
e 184 304
e 184 861
e 184 333
e 185 956
e 185 752
e 185 292
e 187 803
e 187 591
e 187 392
e 187 774
e 189 557
e 189 819
e 189 789
e 190 728
e 190 376
e 191 349
e 191 588
e 191 413
e 193 786
e 193 855
e 193 488
e 193 657
e 194 955
e 194 334
e 194 410
e 194 411
e 194 666
e 195 492
e 195 502
e 195 785
e 195 923
e 195 391
e 196 579
e 196 450
e 196 222
e 197 764
e 197 529
e 197 683
e 197 972
e 197 919
e 198 199
e 198 745
e 198 343
e 199 961
e 199 467
e 199 556
e 201 594
e 201 575
e 201 513
e 201 635
e 201 706
e 202 711
e 202 460
e 203 597
e 203 903
e 204 411
e 204 968
e 204 925
e 205 386
e 205 252
e 205 600
e 205 784
e 205 444
e 206 754
e 206 516
e 206 443
e 207 640
e 207 338
e 207 222
e 210 675
e 210 593
e 210 709
e 210 378
e 210 853
e 210 810
e 212 522
e 212 673
e 212 463
e 212 919
e 212 247
e 213 376
e 213 571
e 213 319
e 213 895
e 213 747
e 213 255
e 215 552
e 215 422
e 215 885
e 216 687
e 216 330
e 216 488
e 216 766
e 216 341
e 217 714
e 217 749
e 217 666
e 217 367
e 217 289
e 218 613
e 218 245
e 218 571
e 218 261
e 220 915
e 220 386
e 220 895
e 222 600
e 222 945
e 222 620
e 224 971
e 224 526
e 224 491
e 224 337
e 224 752
e 224 871
e 224 762
e 225 249
e 225 264
e 225 471
e 227 422
e 227 690
e 227 331
e 227 926
e 229 564
e 229 845
e 229 274
e 229 319
e 229 901
e 229 526
e 230 606
e 230 324
e 235 485
e 235 276
e 235 912
e 236 802
e 236 879
e 236 841
e 237 916
e 237 910
e 237 364
e 238 844
e 238 928
e 239 513
e 239 869
e 239 799
e 240 573
e 240 738
e 240 771
e 240 934
e 240 255
e 241 617
e 241 423
e 241 955
e 241 575
e 241 284
e 242 261
e 242 364
e 242 931
e 243 366
e 243 416
e 243 951
e 244 643
e 245 945
e 245 393
e 247 858
e 247 909
e 247 264
e 247 537
e 247 256
e 248 696
e 248 771
e 249 316
e 249 275
e 250 490
e 250 751
e 250 938
e 251 473
e 251 464
e 251 877
e 251 639
e 252 832
e 252 916
e 252 665
e 252 739
e 252 827
e 254 729
e 254 974
e 255 463
e 256 592
e 256 875
e 256 811
e 256 799
e 257 357
e 257 285
e 257 321
e 257 847
e 259 728
e 259 298
e 259 627
e 260 406
e 260 434
e 260 530
e 260 390
e 260 942
e 261 610
e 261 832
e 261 810
e 263 752
e 263 846
e 263 563
e 264 661
e 264 541
e 265 843
e 265 293
e 266 822
e 266 902
e 266 420
e 266 970
e 267 934
e 267 496
e 267 332
e 267 996
e 267 825
e 268 558
e 268 474
e 268 379
e 271 482
e 271 340
e 271 455
e 271 874
e 271 903
e 272 441
e 272 749
e 272 808
e 272 594
e 272 299
e 272 382
e 273 867
e 273 560
e 273 844
e 273 883
e 274 285
e 274 930
e 275 374
e 276 550
e 276 571
e 277 520
e 277 961
e 277 860
e 277 828
e 277 570
e 278 999
e 278 324
e 278 386
e 279 637
e 279 933
e 279 454
e 279 782
e 279 451
e 282 828
e 282 924
e 282 947
e 282 860
e 284 384
e 285 784
e 285 754
e 288 435
e 288 918
e 288 385
e 289 919
e 289 323
e 289 312
e 289 352
e 289 520
e 290 567
e 291 942
e 291 396
e 291 523
e 291 591
e 291 505
e 291 718
e 292 864
e 292 936
e 292 566
e 293 584
e 293 766
e 293 745
e 294 354
e 294 819
e 294 852
e 296 331
e 296 670
e 296 499
e 297 688
e 297 628
e 297 713
e 298 352
e 298 429
e 298 682
e 298 672
e 298 875
e 299 933
e 299 525
e 299 889
e 299 999
e 299 509
e 299 373
e 301 632
e 301 815
e 302 319
e 302 688
e 302 347
e 304 330
e 306 718
e 306 841
e 306 434
e 306 815
e 306 945
e 307 966
e 307 341
e 307 523
e 307 762
e 307 865
e 308 432
e 308 646
e 308 659
e 308 889
e 308 374
e 308 402
e 308 470
e 308 630
e 308 693
e 312 861
e 312 835
e 312 323
e 312 525
e 312 389
e 313 591
e 315 787
e 315 767
e 315 467
e 315 384
e 316 522
e 316 337
e 316 953
e 316 497
e 318 822
e 318 362
e 319 923
e 319 564
e 319 771
e 319 885
e 319 551
e 320 469
e 320 760
e 320 479
e 321 661
e 321 720
e 322 658
e 322 473
e 322 526
e 322 581
e 323 548
e 323 609
e 324 822
e 324 827
e 324 581
e 325 541
e 325 551
e 325 963
e 326 364
e 326 647
e 326 848
e 326 612
e 328 401
e 328 663
e 328 593
e 328 531
e 330 873
e 330 616
e 331 796
e 332 552
e 333 430
e 333 821
e 333 842
e 333 697
e 333 420
e 334 896
e 334 351
e 337 734
e 337 421
e 338 670
e 338 555
e 338 934
e 340 801
e 340 501
e 340 625
e 340 731
e 340 881
e 341 627
e 341 420
e 341 557
e 342 799
e 342 917
e 342 857
e 343 393
e 343 517
e 343 669
e 343 591
e 344 541
e 344 558
e 344 783
e 344 435
e 346 621
e 346 488
e 346 758
e 346 903
e 346 764
e 347 570
e 347 764
e 347 749
e 348 417
e 348 421
e 349 897
e 351 766
e 351 763
e 351 485
e 351 454
e 351 800
e 351 918
e 352 942
e 352 786
e 352 910
e 352 390
e 352 858
e 353 949
e 353 961
e 353 478
e 354 366
e 354 889
e 357 867
e 357 437
e 357 486
e 357 881
e 357 856
e 357 930
e 358 760
e 358 955
e 360 669
e 360 804
e 360 690
e 362 904
e 362 706
e 362 899
e 363 951
e 363 599
e 363 670
e 364 949
e 364 696
e 366 924
e 367 610
e 367 929
e 367 748
e 367 877
e 368 560
e 368 638
e 371 705
e 371 541
e 372 758
e 372 927
e 372 824
e 373 939
e 374 402
e 374 515
e 376 379
e 376 693
e 376 415
e 378 423
e 378 394
e 378 393
e 379 426
e 379 648
e 380 966
e 380 961
e 380 744
e 380 469
e 382 516
e 382 869
e 382 612
e 382 936
e 382 846
e 382 861
e 383 560
e 383 564
e 384 423
e 384 536
e 384 436
e 385 657
e 385 789
e 386 860
e 386 807
e 386 936
e 387 446
e 387 479
e 388 572
e 388 951
e 388 471
e 389 439
e 389 774
e 389 448
e 389 814
e 390 784
e 390 871
e 390 847
e 391 925
e 391 738
e 391 606
e 391 503
e 392 476
e 392 393
e 393 415
e 394 979
e 394 722
e 394 673
e 394 921
e 396 673
e 396 522
e 397 931
e 397 730
e 397 510
e 397 986
e 398 570
e 398 499
e 398 531
e 399 714
e 399 683
e 399 783
e 401 548
e 401 915
e 401 562
e 402 673
e 402 690
e 402 700
e 404 800
e 404 446
e 404 534
e 404 632
e 406 563
e 406 715
e 406 942
e 406 610
e 409 723
e 409 876
e 409 864
e 410 841
e 410 811
e 410 614
e 410 974
e 411 463
e 413 857
e 413 701
e 413 628
e 413 420
e 413 496
e 415 873
e 415 455
e 415 930
e 416 499
e 416 624
e 416 885
e 417 767
e 417 937
e 417 848
e 421 575
e 422 494
e 423 785
e 423 709
e 423 756
e 424 507
e 424 860
e 424 825
e 426 573
e 426 797
e 426 757
e 428 649
e 428 766
e 429 575
e 429 588
e 429 637
e 429 791
e 430 838
e 430 736
e 430 537
e 430 474
e 430 556
e 432 832
e 432 845
e 433 573
e 433 925
e 433 811
e 434 625
e 435 729
e 436 609
e 437 925
e 437 923
e 437 777
e 439 635
e 439 677
e 441 570
e 441 507
e 442 928
e 442 835
e 443 790
e 443 564
e 443 904
e 444 965
e 444 673
e 444 612
e 444 745
e 446 987
e 446 839
e 446 677
e 446 808
e 446 522
e 448 779
e 448 607
e 450 483
e 450 640
e 450 772
e 451 762
e 451 821
e 451 728
e 454 483
e 454 563
e 455 666
e 455 912
e 456 509
e 456 537
e 458 574
e 458 731
e 458 961
e 459 701
e 459 885
e 459 675
e 460 898
e 460 847
e 460 926
e 463 474
e 463 987
e 463 599
e 463 798
e 464 657
e 464 506
e 465 594
e 465 467
e 465 819
e 466 916
e 466 635
e 466 526
e 467 761
e 467 928
e 467 481
e 467 847
e 467 636
e 467 797
e 469 502
e 469 516
e 470 515
e 470 631
e 471 634
e 471 562
e 473 511
e 473 653
e 473 960
e 473 840
e 473 897
e 474 709
e 474 883
e 475 942
e 475 967
e 475 901
e 476 965
e 476 505
e 478 928
e 478 757
e 479 806
e 479 991
e 481 558
e 481 906
e 482 652
e 482 621
e 483 618
e 483 943
e 483 554
e 485 874
e 485 627
e 485 501
e 486 853
e 486 820
e 488 916
e 490 752
e 490 677
e 490 886
e 490 685
e 491 559
e 491 749
e 491 765
e 492 915
e 492 529
e 492 875
e 496 751
e 496 827
e 497 550
e 497 595
e 497 825
e 499 996
e 500 669
e 500 777
e 501 615
e 502 734
e 503 647
e 503 852
e 503 875
e 505 889
e 505 525
e 506 805
e 506 688
e 507 910
e 508 818
e 508 638
e 508 903
e 508 564
e 509 994
e 509 972
e 509 592
e 510 535
e 510 523
e 510 577
e 510 576
e 511 562
e 511 865
e 511 749
e 511 620
e 511 826
e 513 754
e 513 751
e 514 636
e 514 734
e 515 624
e 515 806
e 515 859
e 516 912
e 516 737
e 517 805
e 517 956
e 517 636
e 522 739
e 523 602
e 523 892
e 525 596
e 525 809
e 525 843
e 525 848
e 526 570
e 526 824
e 526 929
e 526 961
e 527 599
e 527 924
e 527 983
e 528 843
e 528 597
e 529 861
e 529 906
e 531 653
e 531 567
e 531 723
e 531 713
e 532 877
e 532 940
e 532 597
e 532 844
e 532 664
e 533 954
e 533 967
e 533 795
e 534 760
e 534 817
e 534 545
e 535 929
e 535 857
e 535 594
e 536 899
e 536 622
e 536 903
e 536 720
e 537 947
e 537 825
e 537 704
e 539 783
e 539 786
e 539 720
e 539 606
e 539 729
e 541 711
e 545 658
e 545 965
e 548 617
e 548 903
e 550 901
e 550 618
e 551 969
e 552 556
e 554 616
e 554 899
e 555 613
e 555 921
e 557 879
e 557 839
e 558 858
e 558 575
e 560 771
e 562 649
e 562 723
e 563 646
e 564 664
e 565 764
e 565 696
e 565 614
e 566 638
e 566 937
e 567 791
e 567 576
e 567 573
e 570 620
e 572 731
e 572 729
e 573 886
e 573 576
e 574 657
e 574 643
e 575 667
e 575 843
e 576 874
e 577 757
e 577 605
e 579 853
e 579 713
e 579 859
e 579 736
e 581 823
e 581 818
e 583 684
e 583 803
e 583 971
e 584 827
e 584 951
e 584 811
e 584 726
e 588 904
e 591 634
e 591 815
e 592 603
e 592 792
e 593 912
e 595 886
e 599 658
e 599 865
e 599 856
e 602 717
e 602 917
e 602 745
e 602 705
e 603 638
e 603 867
e 603 909
e 603 849
e 605 734
e 605 871
e 605 945
e 605 737
e 606 652
e 606 678
e 606 660
e 606 855
e 607 843
e 607 835
e 610 718
e 610 764
e 613 701
e 614 736
e 615 960
e 615 723
e 615 832
e 615 790
e 617 721
e 618 699
e 618 667
e 620 875
e 620 994
e 621 700
e 621 707
e 622 839
e 622 815
e 622 918
e 625 711
e 627 651
e 627 818
e 628 930
e 628 749
e 628 863
e 630 697
e 630 670
e 630 972
e 630 917
e 631 731
e 631 915
e 632 636
e 634 923
e 634 808
e 634 953
e 634 812
e 635 804
e 635 748
e 636 657
e 637 782
e 638 961
e 639 968
e 639 741
e 641 653
e 641 819
e 641 826
e 643 792
e 643 649
e 647 812
e 648 715
e 648 828
e 648 782
e 648 881
e 648 832
e 649 769
e 649 886
e 650 921
e 651 769
e 651 766
e 652 865
e 653 943
e 653 816
e 653 817
e 655 821
e 655 998
e 655 885
e 655 801
e 655 761
e 656 951
e 656 976
e 657 720
e 658 910
e 659 818
e 660 688
e 660 936
e 660 872
e 660 765
e 660 976
e 660 937
e 661 924
e 663 945
e 664 956
e 664 849
e 665 859
e 666 963
e 666 880
e 667 856
e 669 807
e 669 758
e 670 839
e 670 971
e 671 790
e 671 821
e 671 845
e 672 767
e 673 825
e 675 931
e 678 792
e 678 809
e 679 772
e 679 995
e 683 858
e 684 892
e 684 806
e 685 820
e 685 834
e 685 995
e 688 876
e 690 860
e 690 763
e 692 774
e 692 825
e 692 889
e 692 806
e 693 852
e 693 898
e 693 860
e 696 957
e 697 806
e 697 863
e 698 780
e 698 900
e 699 814
e 699 963
e 699 816
e 700 972
e 700 942
e 701 869
e 704 872
e 704 943
e 704 887
e 706 709
e 706 889
e 706 774
e 707 976
e 708 986
e 708 867
e 709 821
e 711 941
e 714 802
e 714 986
e 715 818
e 715 774
e 717 801
e 718 791
e 718 835
e 718 751
e 720 881
e 720 960
e 721 834
e 722 948
e 723 855
e 723 909
e 723 800
e 723 870
e 725 875
e 725 979
e 726 936
e 726 945
e 726 811
e 727 756
e 727 866
e 727 903
e 728 857
e 728 860
e 730 974
e 735 821
e 736 827
e 736 935
e 738 906
e 739 838
e 741 842
e 744 832
e 744 747
e 745 810
e 746 819
e 747 994
e 747 960
e 747 841
e 747 997
e 747 934
e 747 853
e 749 792
e 749 997
e 751 780
e 754 820
e 757 857
e 757 783
e 758 848
e 758 999
e 760 903
e 761 972
e 762 951
e 762 956
e 765 968
e 766 938
e 766 798
e 766 840
e 767 770
e 767 803
e 767 792
e 769 780
e 770 857
e 770 915
e 770 784
e 771 945
e 772 986
e 777 879
e 777 802
e 778 876
e 778 859
e 779 859
e 779 879
e 783 919
e 783 901
e 786 926
e 787 976
e 787 883
e 790 969
e 791 811
e 791 941
e 795 820
e 795 870
e 795 802
e 795 861
e 795 887
e 796 986
e 796 802
e 797 970
e 798 810
e 798 895
e 799 927
e 799 963
e 800 860
e 801 873
e 802 972
e 804 839
e 805 895
e 805 849
e 806 867
e 806 951
e 807 858
e 808 828
e 809 953
e 810 968
e 812 824
e 812 825
e 817 998
e 818 858
e 819 967
e 819 995
e 821 900
e 821 826
e 821 933
e 821 938
e 821 825
e 822 902
e 822 859
e 823 919
e 823 972
e 824 838
e 826 996
e 826 997
e 832 849
e 835 896
e 835 848
e 835 939
e 838 926
e 841 987
e 845 876
e 848 970
e 848 917
e 848 998
e 848 987
e 849 990
e 856 943
e 863 957
e 866 896
e 866 879
e 867 870
e 881 948
e 883 966
e 886 983
e 887 948
e 889 909
e 897 971
e 899 902
e 901 990
e 906 979
e 910 968
e 917 935
e 921 931
e 923 948
e 929 942
e 933 991
e 938 940
e 939 963
e 942 951
e 945 972
e 949 967
e 949 996
e 979 995
